%chk=Cis.chk
%mem=144GB
%CPU=0,1,2,3,4,5,6,7,8,9,10,11,12,13,14,15,16,17,18,19,20,21,22,23,24,25,26,27,28,29,30,31,32,33,34,35,36,37,38,39,40,41,42,43,44,45,46,47
%lindaworkers=1
# opt b3lyp/6-31g

Structure Optimization

0  1
Cl 0.6878 0.0000 0.0000
H -0.6878 0.0000 0.0000
