%chk=Cis.chk
%mem=144GB
%CPU=0,1,2,3,4,5,6,7,8,9,10,11,12,13,14,15,16,17,18,19,20,21,22,23,24,25,26,27,28,29,30,31,32,33,34,35,36,37,38,39,40,41,42,43,44,45,46,47
%lindaworkers=1
# opt b3lyp/6-31g

Structure Optimization

0  1
C -0.0006 0.0325 0.0000
O 1.2121 -0.6387 -0.0731
O -1.1872 -0.6841 0.0723
O -0.0243 1.2902 0.0008
Na 0.0000 0.0000 0.0000
Na 0.0000 0.0000 0.0000
